========================================================== 
File name: C:\DEGR\assets\definitions\MSRCPSP_Gen\500_20_512_10_A.def
Creation date: Sat May 06 09:16:04 CEST 2023
Website: http://imopse.ii.pwr.edu.pl/ 
Reference: 
Myszkowski P. B., Skowronski M. E., Olech L., Oslizlo K., 
Hybrid Ant Colony Optimization in solving Multi-Skill Resource-Constrained Project Scheduling Problem, 
Soft Computing, DOI: DOI 10.1007/s00500-014-1455-x 
========================================================== 
General characteristics: 
Tasks: 500
Resources: 20
Precedence relations: 511
Number of skill types: 10
========================================================== 
ResourceID 	 Salary 	 Skills 
1	 	 	30.2	 	 Q3: 3 	  Q8: 3 	  Q1: 3 	  Q9: 0 	 
2	 	 	89.3	 	 Q2: 1 	 
3	 	 	39.8	 	 Q8: 2 	  Q2: 3 	 
4	 	 	41.6	 	 Q8: 2 	  Q7: 0 	  Q6: 2 	  Q9: 3 	  Q4: 0 	  Q2: 2 	 
5	 	 	60.3	 	 Q2: 2 	  Q1: 3 	  Q3: 3 	  Q9: 1 	  Q5: 3 	  Q0: 0 	 
6	 	 	95.6	 	 Q2: 3 	  Q9: 1 	  Q8: 0 	  Q3: 0 	  Q7: 0 	  Q6: 0 	  Q5: 0 	 
7	 	 	54.0	 	 Q5: 1 	 
8	 	 	53.6	 	 Q2: 1 	  Q8: 1 	  Q5: 0 	  Q6: 2 	  Q4: 0 	  Q0: 2 	 
9	 	 	69.8	 	 Q0: 2 	  Q4: 3 	  Q8: 1 	 
10	 	 	10.6	 	 Q5: 3 	  Q0: 1 	 
11	 	 	62.4	 	 Q3: 2 	  Q8: 1 	  Q6: 1 	  Q4: 3 	  Q0: 2 	 
12	 	 	57.3	 	 Q9: 3 	  Q8: 3 	  Q7: 1 	 
13	 	 	88.9	 	 Q3: 1 	 
14	 	 	95.2	 	 Q4: 1 	  Q3: 3 	  Q2: 3 	 
15	 	 	64.5	 	 Q4: 1 	  Q5: 3 	 
16	 	 	89.5	 	 Q4: 1 	  Q0: 1 	  Q7: 2 	  Q5: 2 	  Q1: 0 	  Q2: 1 	  Q9: 3 	  Q6: 0 	  Q8: 2 	 
17	 	 	15.6	 	 Q2: 3 	  Q4: 1 	  Q1: 1 	 
18	 	 	54.9	 	 Q7: 2 	 
19	 	 	99.8	 	 Q7: 0 	  Q6: 2 	  Q0: 2 	  Q2: 2 	  Q8: 3 	  Q3: 1 	  Q4: 2 	  Q5: 0 	 
20	 	 	88.2	 	 Q6: 1 	  Q0: 1 	  Q5: 3 	  Q2: 2 	 
========================================================== 
TaskID 	 Duration 	 Skill 	 Predecessor IDs 
1	38	Q1:	0
2	31	Q7:	2
3	12	Q8:	2
4	10	Q8:	2
5	36	Q3:	2
6	26	Q6:	0
7	33	Q8:	1
8	15	Q0:	2
9	39	Q3:	1
10	11	Q7:	2
11	32	Q3:	0
12	9	Q8:	0
13	18	Q0:	1	10
14	30	Q3:	0
15	23	Q5:	2
16	15	Q1:	0
17	39	Q3:	3
18	20	Q4:	1	6
19	39	Q4:	2
20	14	Q3:	3	17
21	10	Q8:	2
22	13	Q8:	0
23	26	Q3:	0
24	20	Q5:	3
25	27	Q3:	2
26	38	Q0:	1
27	32	Q8:	1
28	33	Q2:	3
29	19	Q5:	2
30	33	Q0:	1
31	8	Q6:	0
32	34	Q1:	3
33	38	Q5:	0
34	15	Q4:	1
35	11	Q2:	3
36	33	Q5:	0
37	27	Q7:	2
38	39	Q8:	1
39	40	Q0:	0	33
40	38	Q5:	3
41	18	Q3:	2
42	37	Q3:	0
43	18	Q5:	3	26
44	39	Q0:	0	37
45	20	Q7:	2
46	24	Q6:	1
47	37	Q6:	0	1
48	14	Q8:	0
49	23	Q3:	3	10
50	17	Q6:	2
51	32	Q5:	3
52	19	Q9:	3
53	39	Q5:	1
54	34	Q1:	0
55	31	Q8:	2
56	24	Q1:	0
57	13	Q0:	2
58	15	Q2:	3	10
59	14	Q5:	1
60	26	Q9:	0
61	22	Q7:	0
62	30	Q6:	1
63	18	Q3:	3
64	12	Q0:	2
65	9	Q6:	1
66	25	Q8:	3
67	27	Q4:	1
68	15	Q7:	0	11
69	39	Q6:	0
70	28	Q8:	2
71	18	Q2:	2
72	31	Q8:	1
73	9	Q8:	2	55	19
74	22	Q8:	1
75	34	Q8:	0	28
76	20	Q1:	1
77	29	Q7:	2	54
78	34	Q7:	2
79	15	Q5:	2	73
80	27	Q9:	1
81	13	Q7:	2
82	33	Q7:	0
83	37	Q6:	2
84	11	Q1:	0	80
85	15	Q3:	2
86	29	Q8:	1
87	36	Q8:	0
88	26	Q4:	1
89	29	Q3:	0	85
90	30	Q5:	1
91	19	Q2:	3
92	22	Q4:	3
93	38	Q0:	0
94	9	Q5:	1
95	11	Q3:	3
96	19	Q4:	2	30
97	30	Q1:	3
98	37	Q2:	3
99	17	Q4:	3	85	71
100	24	Q3:	2	30
101	12	Q2:	2	20
102	26	Q3:	1
103	19	Q8:	0
104	28	Q7:	2
105	15	Q6:	0	79
106	30	Q9:	3	2	48
107	21	Q6:	0
108	40	Q2:	2
109	12	Q1:	0	79
110	12	Q3:	3
111	40	Q2:	3
112	31	Q7:	0
113	36	Q3:	2
114	11	Q2:	1
115	20	Q3:	2	79	101	77
116	15	Q4:	0
117	38	Q5:	1
118	36	Q9:	3
119	40	Q7:	2
120	28	Q9:	1	25
121	27	Q7:	0	47
122	15	Q1:	0
123	38	Q9:	0
124	21	Q8:	1	5
125	31	Q6:	0
126	19	Q3:	0
127	12	Q7:	0
128	15	Q2:	3	23
129	25	Q3:	1
130	22	Q5:	1
131	31	Q8:	3
132	26	Q4:	0	78	110
133	18	Q1:	1	108
134	20	Q3:	1
135	34	Q3:	2
136	27	Q6:	0
137	23	Q6:	0
138	36	Q6:	0
139	30	Q9:	3	20	137	39
140	22	Q2:	3
141	24	Q3:	0
142	9	Q1:	3	99
143	17	Q4:	3
144	19	Q1:	0
145	11	Q1:	3	117
146	34	Q3:	2	91	125
147	33	Q3:	3	28	10	16
148	16	Q6:	0	98
149	17	Q6:	2
150	24	Q9:	0	121	34
151	11	Q4:	1	95
152	28	Q1:	3
153	12	Q2:	3	72
154	18	Q7:	0	139
155	40	Q7:	0	98
156	14	Q4:	1
157	19	Q5:	0
158	40	Q3:	0	52
159	40	Q5:	0	139
160	9	Q9:	0
161	32	Q1:	3	38
162	25	Q2:	3	116
163	14	Q4:	3	139
164	32	Q3:	2
165	21	Q8:	1
166	37	Q4:	2	79	51	85	42
167	39	Q1:	3
168	26	Q8:	0
169	35	Q5:	3
170	9	Q7:	1	153	158
171	9	Q1:	1
172	35	Q4:	1
173	36	Q1:	3	126	112
174	32	Q8:	3	44
175	31	Q1:	0
176	28	Q7:	0	79
177	24	Q4:	3
178	30	Q9:	1
179	12	Q8:	3	119
180	34	Q0:	0	105	172
181	23	Q6:	2	95
182	38	Q4:	3
183	39	Q1:	0
184	23	Q8:	3	10
185	17	Q6:	2	162	18
186	21	Q4:	0
187	21	Q0:	0	163
188	34	Q5:	2	112
189	28	Q7:	2
190	30	Q7:	1
191	18	Q5:	3
192	23	Q9:	0	101	32	46
193	9	Q1:	1	104
194	19	Q8:	2	41	166	172
195	34	Q8:	0	6
196	23	Q2:	3	138	134
197	15	Q5:	1	81
198	24	Q1:	1
199	27	Q5:	2	39	102
200	27	Q6:	0	166
201	15	Q3:	3	117
202	23	Q9:	3	174	83
203	16	Q2:	2	189	137
204	29	Q4:	3
205	38	Q6:	1	27
206	32	Q7:	2	205	168
207	39	Q9:	1	186
208	26	Q5:	1	143
209	38	Q3:	3
210	9	Q8:	1
211	14	Q3:	0
212	24	Q4:	3	46
213	36	Q6:	1
214	27	Q9:	3
215	11	Q8:	0	183	166
216	23	Q7:	0	172
217	21	Q7:	0	157	36	80	98	164	128
218	30	Q3:	3
219	27	Q5:	1
220	25	Q5:	0
221	17	Q0:	2	59	103
222	17	Q7:	2
223	15	Q2:	2	167	86
224	19	Q1:	0	35
225	22	Q3:	3
226	26	Q3:	0
227	32	Q4:	3
228	12	Q5:	0	111	214
229	26	Q4:	3
230	13	Q0:	2	39	7
231	39	Q8:	1	206
232	21	Q7:	2	75
233	36	Q5:	0
234	32	Q1:	3	44	225
235	18	Q3:	1
236	25	Q9:	0
237	16	Q8:	1	113
238	25	Q5:	1
239	19	Q5:	2	110
240	21	Q2:	1
241	25	Q1:	0	120
242	34	Q1:	3	95
243	29	Q3:	3	4	103
244	11	Q1:	1	171
245	24	Q9:	1
246	37	Q8:	1	220
247	35	Q8:	2	235	19	56	98
248	40	Q3:	3	214	185
249	39	Q5:	0	44	109
250	13	Q8:	0	153
251	22	Q5:	2	159
252	12	Q4:	1	182
253	12	Q2:	2	73
254	35	Q5:	0	89
255	11	Q4:	1	74
256	12	Q1:	1	112	69	189
257	32	Q4:	2
258	31	Q1:	0	43
259	33	Q7:	0	176	40
260	18	Q3:	1	45
261	11	Q1:	0	15	143
262	19	Q1:	1
263	14	Q5:	0	148
264	13	Q7:	2	185
265	20	Q2:	1	233
266	35	Q5:	0
267	28	Q7:	1	170
268	34	Q5:	0	173	129
269	10	Q8:	1	99
270	39	Q5:	3	80
271	29	Q7:	2	66	129
272	26	Q1:	3
273	12	Q2:	2	192
274	32	Q5:	0	9
275	11	Q3:	2	149	179
276	30	Q3:	2	275
277	31	Q4:	1
278	28	Q5:	1
279	40	Q4:	0	244	192
280	13	Q2:	1
281	22	Q2:	1
282	33	Q3:	1	198
283	27	Q6:	0	172	211
284	40	Q8:	3
285	40	Q1:	0
286	37	Q8:	0	251
287	32	Q8:	0	34	6
288	37	Q0:	2
289	40	Q6:	1	17	106
290	14	Q4:	0
291	11	Q5:	3
292	20	Q4:	1	204
293	34	Q0:	1
294	28	Q4:	1	159	77
295	33	Q8:	2	161	219	203
296	16	Q1:	0
297	27	Q1:	3	284	256	7	289
298	21	Q4:	0	15	65
299	18	Q8:	0	169	188	81	277
300	34	Q5:	0	122	68	293	104	142
301	35	Q8:	1	157	289
302	29	Q8:	0
303	20	Q4:	0	203	49
304	25	Q7:	0	131	47
305	37	Q5:	3	191
306	36	Q2:	3	49
307	26	Q4:	2	216
308	23	Q4:	2
309	11	Q5:	3
310	13	Q0:	0
311	17	Q7:	2	184	20	12
312	11	Q7:	1	256	19
313	22	Q8:	1	235	200
314	11	Q8:	3
315	9	Q2:	3	283	76	2
316	12	Q6:	2	210	35
317	26	Q3:	1	148	299	266	313
318	39	Q0:	2	295	54	90
319	23	Q8:	3	270
320	24	Q9:	0	87	72
321	16	Q8:	1
322	40	Q3:	1
323	19	Q5:	1
324	39	Q7:	0	21	186
325	20	Q3:	1	49
326	9	Q0:	0	14	4	174
327	24	Q5:	3	3
328	36	Q7:	2	171
329	14	Q1:	0	172
330	22	Q1:	3
331	31	Q3:	2	252
332	32	Q5:	0	186
333	34	Q7:	1	285
334	25	Q6:	0
335	11	Q2:	2	60	81	12	331
336	20	Q7:	1
337	16	Q7:	2	35	95	17
338	12	Q2:	3	330
339	12	Q4:	0	82	32	26
340	19	Q9:	1	134
341	27	Q5:	2	20	241
342	20	Q8:	3	298
343	25	Q2:	1	115
344	17	Q8:	3
345	21	Q4:	3	299
346	34	Q6:	2	150
347	27	Q0:	0	57
348	31	Q4:	1
349	37	Q8:	0	282	246
350	19	Q6:	0
351	30	Q5:	3	43
352	38	Q9:	0	63	262
353	26	Q4:	3	343
354	23	Q4:	1	62
355	36	Q8:	0	293	272	54	304	287
356	12	Q3:	2	320	182	211	184	196
357	15	Q2:	1	308	60
358	39	Q5:	1
359	23	Q4:	0
360	13	Q9:	1	74
361	39	Q8:	2	63	242
362	16	Q3:	3	334
363	21	Q9:	3	310	318	8
364	29	Q3:	0
365	36	Q1:	3
366	33	Q4:	2	25	23
367	39	Q1:	0	276	308
368	10	Q5:	3
369	9	Q4:	3	202
370	17	Q8:	1
371	37	Q4:	3
372	15	Q5:	3	341	175	95
373	10	Q8:	1
374	27	Q0:	1
375	29	Q5:	3	104	225	53
376	10	Q9:	1	164
377	12	Q7:	1	51	268	105
378	9	Q3:	1	46
379	9	Q7:	1	156	69
380	23	Q5:	0	92
381	26	Q8:	3	127
382	15	Q1:	3	378	29	367	341	266
383	28	Q8:	2	151	137	84	91
384	15	Q4:	0	96	133	183
385	19	Q4:	3	267	169
386	22	Q7:	2	370	230
387	21	Q5:	3	22	334	27
388	21	Q5:	3	68	304
389	17	Q9:	3
390	22	Q6:	0
391	21	Q5:	2	3
392	14	Q0:	1	212	133	145
393	38	Q1:	0	369
394	23	Q7:	0	6
395	17	Q2:	1	217
396	33	Q4:	1
397	32	Q3:	3	76
398	9	Q6:	2	218
399	34	Q3:	1	134	236
400	23	Q5:	0	163
401	34	Q7:	1
402	16	Q9:	1	300
403	9	Q7:	2	277	243	115
404	16	Q6:	2	193	247
405	38	Q8:	3	249	135	207
406	30	Q4:	3	257
407	18	Q4:	2	102
408	28	Q5:	1	328	370
409	33	Q3:	3	307	224
410	17	Q8:	2	45	392	213
411	20	Q2:	2	180
412	39	Q3:	0	278	295
413	31	Q9:	3	263
414	33	Q9:	3	62	126	163
415	21	Q6:	1
416	9	Q5:	0	116	209
417	36	Q7:	1	157	385	222
418	22	Q8:	1	254
419	30	Q1:	1	267
420	20	Q4:	3	163
421	29	Q3:	2	77	61	350
422	13	Q1:	1	98
423	14	Q8:	0	77
424	34	Q3:	2	406	53
425	16	Q1:	3	12	280	229
426	22	Q3:	0	228
427	32	Q2:	3	358
428	38	Q4:	2
429	18	Q1:	0	7
430	33	Q2:	3	52	156
431	11	Q0:	1	147	237
432	16	Q1:	0	267
433	31	Q9:	3
434	20	Q4:	3	76	258	292	41
435	20	Q6:	0	50
436	18	Q3:	0	48
437	40	Q1:	3	386	380	152	391
438	32	Q5:	0	137	24
439	21	Q0:	2	107
440	11	Q1:	0	84
441	12	Q4:	0	269	400	102
442	14	Q4:	3	336	235
443	15	Q5:	1	285	213	30
444	18	Q4:	3	361	114	270
445	32	Q7:	1
446	39	Q4:	3	31	103	127
447	16	Q6:	1	12	397
448	12	Q0:	1	253	274
449	39	Q1:	3	239
450	19	Q8:	1	173	185	56
451	25	Q7:	2	282
452	19	Q4:	2	26	321
453	32	Q4:	1	402
454	21	Q6:	2	30
455	35	Q3:	2
456	38	Q8:	2	54	343	449
457	30	Q0:	0	190
458	38	Q6:	2	262	226	113
459	25	Q9:	3	337
460	22	Q3:	2	312
461	11	Q8:	3	354	412	240
462	9	Q8:	3	102	148	445
463	22	Q7:	1	43
464	16	Q3:	0
465	13	Q3:	2	389
466	16	Q3:	0	221
467	37	Q3:	2	285
468	10	Q2:	1	80	387	417	187
469	35	Q9:	1	99
470	29	Q5:	0	445	355
471	15	Q4:	1
472	35	Q3:	0
473	9	Q7:	1	89	36
474	13	Q7:	1	31	98
475	25	Q0:	0	15	361
476	38	Q5:	0	340
477	40	Q5:	3	228
478	10	Q4:	0	441	189	253
479	39	Q8:	1	456
480	26	Q3:	0	12	161	46
481	14	Q3:	1	226	71
482	14	Q7:	1	389
483	16	Q8:	3	28
484	14	Q9:	3	312	298	203	216
485	26	Q4:	3	325	4	3
486	29	Q3:	1	292
487	20	Q0:	1	137	211	344	435
488	9	Q2:	1	422	484
489	9	Q2:	2	236	192	199	31
490	9	Q4:	2
491	22	Q6:	2	382	396	432	356
492	39	Q5:	2	71
493	22	Q7:	0	104
494	13	Q4:	0
495	11	Q2:	2
496	11	Q4:	0	246
497	9	Q3:	2	491	95
498	27	Q0:	0	135	112
499	35	Q6:	0	395
500	33	Q8:	3	104	481
========================================================== 